0 0 0 0
0 1 2 0
0 2 0 0
0 3 0 0
0 4 0 7
0 5 0 1
0 6 0 7
0 7 2 3
0 8 0 11
0 9 0 11
0 10 0 12
0 11 0 12
0 12 0 21
0 13 0 23
0 14 2 7
0 15 0 11
0 16 0 16
0 17 0 3
0 18 0 17
0 19 2 8
0 20 1 21
0 21 0 20
0 22 0 13
0 23 2 15
0 24 0 21
0 25 0 23
0 26 0 23
0 27 0 11
0 28 0 26
0 29 0 26
0 30 0 23
0 31 0 34
